EDIFF = 1e-06
SYSTEM = bulk MoTe2
ISMEAR = 0
SIGMA = 0.05
IVDW = 11
LMAXMIX = 4
LASPH = .TRUE.
ENCUT = 350
LSORBIT = .TRUE.
IBRION = 2
EDIFFG = -0.001
NSW = 50
ISIF = 3
NCORE = 8
KPAR = 14
