Mo Te2                                  
   1.00000000000000     
     3.5112932001379868    0.0000000663133356    0.0000002881631914
    -1.7556465520475550    3.0408691380965451    0.0000001422861099
    -0.0000000028169397   -0.0000000032324550   13.9265355689235530
  Mo              Te            
     2     4
Direct
     0.3333333253794777    0.6666666515855368    0.2499999997350670
     0.6666666446205198    0.3333333484144632    0.7500000002649330
     0.3333332941088969    0.6666666761239171    0.6196918629656010
     0.6666666758911006    0.3333333238760829    0.3803081370343901
     0.6666666539724417    0.3333333073654003    0.1196918630602060
     0.3333333160275558    0.6666666926345997    0.8803081369398045
 
  0.00000000E+00  0.00000000E+00  0.00000000E+00
  0.00000000E+00  0.00000000E+00  0.00000000E+00
  0.00000000E+00  0.00000000E+00  0.00000000E+00
  0.00000000E+00  0.00000000E+00  0.00000000E+00
  0.00000000E+00  0.00000000E+00  0.00000000E+00
  0.00000000E+00  0.00000000E+00  0.00000000E+00
