EDIFF = 1e-06
SYSTEM = bulk MoTe2
ISMEAR = 0
SIGMA = 0.05
IVDW = 11
LMAXMIX = 4
LASPH = .TRUE.
NCORE = 8
ENCUT = 350
ICHARG = 11
LWAVE = .FALSE.
LCHARG = .FALSE.
LORBIT = 11
NEDOS = 10001
EMIN = 3.603999999999999
EMAX = 13.604
ALGO = None
NELM = 1
