Mo Te2                                  
   1.00000000000000     
     3.5112932001379868    0.0000000663133356    0.0000002881631914
    -1.7556465520475550    3.0408691380965451    0.0000001422861099
    -0.0000000028169397   -0.0000000032324550   13.9265355689235530
  Mo              Te            
     2     4
Direct
     0.3333333253794777    0.6666666515855368    0.2499999997350670