EDIFF = 1e-06
SYSTEM = bulk MoTe2
ISMEAR = 0
SIGMA = 0.05
IVDW = 11
LMAXMIX = 4
LASPH = .TRUE.
IBRION = 2
EDIFFG = -0.001
NSW = 50
ISIF = 3
ALGO = None
NELM = 1
LWAVE = .FALSE.
LCHARG = .FALSE.
