Mo Te2                                  
   1.00000000000000     
     3.5158565551856618    0.0000000665475366    0.0000002900154832
    -1.7579282293807978    3.0448211196003254    0.0000001432007145
    -0.0000000014515878   -0.0000000016657056   13.9977518930268570
  Mo              Te            
     2     4
Direct
     0.3333333253794777    0.6666666515855368    0.2499999997350670
     0.6666666446205198    0.3333333484144632    0.7500000002649330
     0.3333332941054010    0.6666666761211317    0.6203948245322169
     0.6666666758945965    0.3333333238788683    0.3796051754677743
     0.6666666539689459    0.3333333073626150    0.1203948246268192
     0.3333333160310517    0.6666666926373850    0.8796051753731885
 
  0.00000000E+00  0.00000000E+00  0.00000000E+00
  0.00000000E+00  0.00000000E+00  0.00000000E+00
  0.00000000E+00  0.00000000E+00  0.00000000E+00
  0.00000000E+00  0.00000000E+00  0.00000000E+00
  0.00000000E+00  0.00000000E+00  0.00000000E+00
  0.00000000E+00  0.00000000E+00  0.00000000E+00
