Mo Te2                                  
   1.00000000000000     
     3.4951517051423044    0.0000000654769182    0.0000002818731446
    -1.7475758052308292    3.0268901929964360    0.0000001391802785
    -0.0000000078294896   -0.0000000089843851   13.6850050901045464
  Mo              Te            
     2     4
Direct
     0.3333333253794777    0.6666666515855368    0.2499999997350670
     0.6666666446205198    0.3333333484144632    0.7500000002649330
     0.3333332941111586    0.6666666761257196    0.6171978883575159
     0.6666666758888392    0.3333333238742801    0.3828021116424767
     0.6666666539747031    0.3333333073672032    0.1171978884521176
     0.3333333160252941    0.6666666926327971    0.8828021115478896
 
  0.00000000E+00  0.00000000E+00  0.00000000E+00
  0.00000000E+00  0.00000000E+00  0.00000000E+00
  0.00000000E+00  0.00000000E+00  0.00000000E+00
  0.00000000E+00  0.00000000E+00  0.00000000E+00
  0.00000000E+00  0.00000000E+00  0.00000000E+00
  0.00000000E+00  0.00000000E+00  0.00000000E+00
