Mo Te2                                  
   1.00000000000000     
     3.4867155396595351    0.0000000650318663    0.0000002799520962
    -1.7433577228522685    3.0195842591760407    0.0000001382317239
    -0.0000000104145738   -0.0000000119507844   13.6241414724721608
  Mo              Te            
     2     4
Direct
     0.3333333253794777    0.6666666515855368    0.2499999997350670
     0.6666666446205198    0.3333333484144632    0.7500000002649330
     0.3333332941113483    0.6666666761258710    0.6164503253151482
     0.6666666758886493    0.3333333238741290    0.3835496746848447
     0.6666666539748931    0.3333333073673543    0.1164503254097499
     0.3333333160251044    0.6666666926326457    0.8835496745902572
 
  0.00000000E+00  0.00000000E+00  0.00000000E+00
  0.00000000E+00  0.00000000E+00  0.00000000E+00
  0.00000000E+00  0.00000000E+00  0.00000000E+00
  0.00000000E+00  0.00000000E+00  0.00000000E+00
  0.00000000E+00  0.00000000E+00  0.00000000E+00
  0.00000000E+00  0.00000000E+00  0.00000000E+00
