Mo Te2                                  
   1.00000000000000     
     3.5137799696336169    0.0000000664478188    0.0000002887855905
    -1.7568899366855786    3.0430227437142001    0.0000001425934315
    -0.0000000020467233   -0.0000000023486269   13.9465189836406473
  Mo              Te            
     2     4
Direct
     0.3333333253794777    0.6666666515855368    0.2499999997350670
     0.6666666446205198    0.3333333484144632    0.7500000002649330
     0.3333332941079519    0.6666666761231639    0.6199234533325704
     0.6666666758920456    0.3333333238768361    0.3800765466674191
     0.6666666539714967    0.3333333073646472    0.1199234534271738
     0.3333333160285008    0.6666666926353528    0.8800765465728351
 
  0.00000000E+00  0.00000000E+00  0.00000000E+00
  0.00000000E+00  0.00000000E+00  0.00000000E+00
  0.00000000E+00  0.00000000E+00  0.00000000E+00
  0.00000000E+00  0.00000000E+00  0.00000000E+00
  0.00000000E+00  0.00000000E+00  0.00000000E+00
  0.00000000E+00  0.00000000E+00  0.00000000E+00
