Mo Te2                                  
   1.00000000000000     
     3.5189812207441733    0.0000000667875770    0.0000002910710388
    -1.7594905619605452    3.0475271594633271    0.0000001437219154
     0.0000000000000000    0.0000000000000000   14.0369457689663459
  Mo              Te            
     2     4
Direct
     0.3333333253794777    0.6666666515855368    0.2499999997350670
     0.6666666446205198    0.3333333484144632    0.7500000002649330
     0.3333332941148512    0.6666666761286635    0.6207457797463505
     0.6666666758851463    0.3333333238713365    0.3792542202536424
     0.6666666539783961    0.3333333073701468    0.1207457798409521
     0.3333333160216014    0.6666666926298532    0.8792542201590550
 
  0.00000000E+00  0.00000000E+00  0.00000000E+00
  0.00000000E+00  0.00000000E+00  0.00000000E+00
  0.00000000E+00  0.00000000E+00  0.00000000E+00
  0.00000000E+00  0.00000000E+00  0.00000000E+00
  0.00000000E+00  0.00000000E+00  0.00000000E+00
  0.00000000E+00  0.00000000E+00  0.00000000E+00
