Mo Te2                                  
   1.00000000000000     
     3.4970991679637677    0.0000000655798392    0.0000002825110570
    -1.7485495365576469    3.0285767453194166    0.0000001394952600
    -0.0000000072384212   -0.0000000083061307   13.7085635545130664
  Mo              Te            
     2     4
Direct
     0.3333333253794777    0.6666666515855368    0.2499999997350670
     0.6666666446205198    0.3333333484144632    0.7500000002649330
     0.3333332941110712    0.6666666761256508    0.6174406469318244
     0.6666666758889264    0.3333333238743492    0.3825593530681679
     0.6666666539746160    0.3333333073671341    0.1174406470264266
     0.3333333160253815    0.6666666926328659    0.8825593529735810
 
  0.00000000E+00  0.00000000E+00  0.00000000E+00
  0.00000000E+00  0.00000000E+00  0.00000000E+00
  0.00000000E+00  0.00000000E+00  0.00000000E+00
  0.00000000E+00  0.00000000E+00  0.00000000E+00
  0.00000000E+00  0.00000000E+00  0.00000000E+00
  0.00000000E+00  0.00000000E+00  0.00000000E+00
