Mo Te2                                  
   1.00000000000000     
     3.5136762616584383    0.0000000664411145    0.0000002885692346
    -1.7568380827035104    3.0429329299700374    0.0000001424866016
    -0.0000000020935321   -0.0000000024023403   13.9365829527990499
  Mo              Te            
     2     4
Direct
     0.3333333253794777    0.6666666515855368    0.2499999997350670
     0.6666666446205198    0.3333333484144632    0.7500000002649330
     0.3333332941079514    0.6666666761231637    0.6198141036059175
     0.6666666758920464    0.3333333238768363    0.3801858963940752
     0.6666666539714959    0.3333333073646469    0.1198141037005193
     0.3333333160285012    0.6666666926353531    0.8801858962994880
 
  0.00000000E+00  0.00000000E+00  0.00000000E+00
  0.00000000E+00  0.00000000E+00  0.00000000E+00
  0.00000000E+00  0.00000000E+00  0.00000000E+00
  0.00000000E+00  0.00000000E+00  0.00000000E+00
  0.00000000E+00  0.00000000E+00  0.00000000E+00
  0.00000000E+00  0.00000000E+00  0.00000000E+00
