Mo Te2                                  
   1.00000000000000     
     3.5132234307885137    0.0000000664157603    0.0000002888624186
    -1.7566116672892913    3.0425407669215274    0.0000001426313668
    -0.0000000022425083   -0.0000000025732914   13.9525576382365735
  Mo              Te            
     2     4
Direct
     0.3333333253794777    0.6666666515855368    0.2499999997350670
     0.6666666446205198    0.3333333484144632    0.7500000002649330
     0.3333332941076458    0.6666666761229200    0.6199648326600046
     0.6666666758923520    0.3333333238770799    0.3800351673399885
     0.6666666539711904    0.3333333073644034    0.1199648327546062
     0.3333333160288068    0.6666666926355967    0.8800351672454009
 
  0.00000000E+00  0.00000000E+00  0.00000000E+00
  0.00000000E+00  0.00000000E+00  0.00000000E+00
  0.00000000E+00  0.00000000E+00  0.00000000E+00
  0.00000000E+00  0.00000000E+00  0.00000000E+00
  0.00000000E+00  0.00000000E+00  0.00000000E+00
  0.00000000E+00  0.00000000E+00  0.00000000E+00
