Mo Te2                                  
   1.00000000000000     
     3.5141427399487504    0.0000000664652457    0.0000002892883140
    -1.7570713218290070    3.0433369120306422    0.0000001428416608
    -0.0000000019465239   -0.0000000022336475   13.9695472061274586
  Mo              Te            
     2     4
Direct
     0.3333333253794777    0.6666666515855368    0.2499999997350670
     0.6666666446205198    0.3333333484144632    0.7500000002649330
     0.3333332941076463    0.6666666761229223    0.6201373702449021
     0.6666666758923512    0.3333333238770777    0.3798626297550974
     0.6666666539711912    0.3333333073644056    0.1201373703394982
     0.3333333160288063    0.6666666926355944    0.8798626296605033
 
  0.00000000E+00  0.00000000E+00  0.00000000E+00
  0.00000000E+00  0.00000000E+00  0.00000000E+00
  0.00000000E+00  0.00000000E+00  0.00000000E+00
  0.00000000E+00  0.00000000E+00  0.00000000E+00
  0.00000000E+00  0.00000000E+00  0.00000000E+00
  0.00000000E+00  0.00000000E+00  0.00000000E+00
