Mo Te2                                  
   1.00000000000000     
     3.4923469919721657    0.0000000653378795    0.0000002826986954
    -1.7461734487586564    3.0244612400779838    0.0000001395879100
    -0.0000000086373803   -0.0000000099114445   13.7354604252907730
  Mo              Te            
     2     4
Direct
     0.3333333253794777    0.6666666515855368    0.2499999997350670
     0.6666666446205198    0.3333333484144632    0.7500000002649330
     0.3333332941113482    0.6666666761258717    0.6175306992283800
     0.6666666758886489    0.3333333238741285    0.3824693007716129
     0.6666666539748934    0.3333333073673548    0.1175306993229817
     0.3333333160251045    0.6666666926326450    0.8824693006770254
 
  0.00000000E+00  0.00000000E+00  0.00000000E+00
  0.00000000E+00  0.00000000E+00  0.00000000E+00
  0.00000000E+00  0.00000000E+00  0.00000000E+00
  0.00000000E+00  0.00000000E+00  0.00000000E+00
  0.00000000E+00  0.00000000E+00  0.00000000E+00
  0.00000000E+00  0.00000000E+00  0.00000000E+00
