Mo Te2                                  
   1.00000000000000     
     3.5113696637231242    0.0000000663208034    0.0000002881993062
    -1.7556847838338654    3.0409353575072298    0.0000001423039423
    -0.0000000028331320   -0.0000000032510356   13.9280131181860831
  Mo              Te            
     2     4
Direct
     0.3333333253794777    0.6666666515855368    0.2499999997350670
     0.6666666446205198    0.3333333484144632    0.7500000002649330
     0.3333332941080756    0.6666666761232625    0.6196934741263589
     0.6666666758919222    0.3333333238767375    0.3803065258736343
     0.6666666539716202    0.3333333073647458    0.1196934742209603
     0.3333333160283771    0.6666666926352542    0.8803065257790466
 
  0.00000000E+00  0.00000000E+00  0.00000000E+00
  0.00000000E+00  0.00000000E+00  0.00000000E+00
  0.00000000E+00  0.00000000E+00  0.00000000E+00
  0.00000000E+00  0.00000000E+00  0.00000000E+00
  0.00000000E+00  0.00000000E+00  0.00000000E+00
  0.00000000E+00  0.00000000E+00  0.00000000E+00
