Mo Te2                                  
   1.00000000000000     
     3.5120116243140185    0.0000000663565176    0.0000002879322666
    -1.7560057641001028    3.0414913117034184    0.0000001421720863
    -0.0000000026525473   -0.0000000030438135   13.9127224535542009
  Mo              Te            
     2     4
Direct
     0.3333333253794777    0.6666666515855368    0.2499999997350670
     0.6666666446205198    0.3333333484144632    0.7500000002649330
     0.3333332941070892    0.6666666761224768    0.6195774546758864
     0.6666666758929083    0.3333333238775235    0.3804225453241063
     0.6666666539706341    0.3333333073639598    0.1195774547704881
     0.3333333160293634    0.6666666926360399    0.8804225452295190
 
  0.00000000E+00  0.00000000E+00  0.00000000E+00
  0.00000000E+00  0.00000000E+00  0.00000000E+00
  0.00000000E+00  0.00000000E+00  0.00000000E+00
  0.00000000E+00  0.00000000E+00  0.00000000E+00
  0.00000000E+00  0.00000000E+00  0.00000000E+00
  0.00000000E+00  0.00000000E+00  0.00000000E+00
