Mo Te2                                  
   1.00000000000000     
     3.4971313801425978    0.0000000655820177    0.0000002823315706
    -1.7485656426452694    3.0286046418856065    0.0000001394066351
    -0.0000000072205696   -0.0000000082856459   13.6996181272852962
  Mo              Te            
     2     4
Direct
     0.3333333253794777    0.6666666515855368    0.2499999997350670
     0.6666666446205198    0.3333333484144632    0.7500000002649330
     0.3333332941111848    0.6666666761257432    0.6173545841328982
     0.6666666758888127    0.3333333238742568    0.3826454158670868
     0.6666666539747297    0.3333333073672264    0.1173545842275052
     0.3333333160252678    0.6666666926327736    0.8826454157725072
 
  0.00000000E+00  0.00000000E+00  0.00000000E+00
  0.00000000E+00  0.00000000E+00  0.00000000E+00
  0.00000000E+00  0.00000000E+00  0.00000000E+00
  0.00000000E+00  0.00000000E+00  0.00000000E+00
  0.00000000E+00  0.00000000E+00  0.00000000E+00
  0.00000000E+00  0.00000000E+00  0.00000000E+00
