EDIFF = 1e-06
SYSTEM = bulk MoTe2
ISMEAR = 0
SIGMA = 0.05
IVDW = 11
LMAXMIX = 4
LASPH = .TRUE.
NCORE = 8
IBRION = 2
EDIFFG = -0.001
NSW = 50
ISIF = 3
KPAR = 14
ENCUT = 400
