Mo Te2                                  
   1.00000000000000     
     3.5189812207441733    0.0000000667875770    0.0000002910710388
    -1.7594905619605452    3.0475271594633271    0.0000001437219154
     0.0000000000000000    0.0000000000000000   14.0369457689663459
   Mo   Te
     2     4
Direct
  0.3333333253794794  0.6666666515855391  0.2499999997350635
  0.6666666446205174  0.3333333484144611  0.7500000002649354
  0.3333332941148515  0.6666666761286619  0.6207457797463526
  0.6666666758851461  0.3333333238713386  0.3792542202536412
  0.6666666539783952  0.3333333073701485  0.1207457798409556
  0.3333333160216027  0.6666666926298515  0.8792542201590523
 
  0.00000000E+00  0.00000000E+00  0.00000000E+00
  0.00000000E+00  0.00000000E+00  0.00000000E+00
  0.00000000E+00  0.00000000E+00  0.00000000E+00
  0.00000000E+00  0.00000000E+00  0.00000000E+00
  0.00000000E+00  0.00000000E+00  0.00000000E+00
  0.00000000E+00  0.00000000E+00  0.00000000E+00
