Mo Te2                                  
   1.00000000000000     
     3.5122768977470185   -0.0000092067049519    0.0000002292271316
    -1.7561464318425504    3.0417163837352308    0.0000000986981078
    -0.0000002356089347   -0.0000003383569381   13.9307745167629431
  Mo              Te            
     2     4
Direct
     0.3333333075949056    0.6666666712484449    0.2499999994603375
     0.6666666624050921    0.3333333287515551    0.7500000005396625
     0.3333333015329267    0.6666666825139222    0.6196719036390350
     0.6666666684670708    0.3333333174860778    0.3803280963609577
     0.6666666616240089    0.3333333122361863    0.1196719042260096
     0.3333333083759887    0.6666666877638137    0.8803280957739975
 
  0.00000000E+00  0.00000000E+00  0.00000000E+00
  0.00000000E+00  0.00000000E+00  0.00000000E+00
  0.00000000E+00  0.00000000E+00  0.00000000E+00
  0.00000000E+00  0.00000000E+00  0.00000000E+00
  0.00000000E+00  0.00000000E+00  0.00000000E+00
  0.00000000E+00  0.00000000E+00  0.00000000E+00
