Mo Te2                                  
   1.00000000000000     
     3.5160843767177212    0.0000000665586912    0.0000002903812062
    -1.7580421401377790    3.0450184188396499    0.0000001433812973
    -0.0000000013575531   -0.0000000015578002   14.0143431502188225
  Mo              Te            
     2     4
Direct
     0.3333333253794777    0.6666666515855368    0.2499999997350670
     0.6666666446205198    0.3333333484144632    0.7500000002649330
     0.3333332941056886    0.6666666761213601    0.6205187031396503
     0.6666666758943092    0.3333333238786400    0.3794812968603424
     0.6666666539692332    0.3333333073628433    0.1205187032342521
     0.3333333160307641    0.6666666926371566    0.8794812967657551
 
  0.00000000E+00  0.00000000E+00  0.00000000E+00
  0.00000000E+00  0.00000000E+00  0.00000000E+00
  0.00000000E+00  0.00000000E+00  0.00000000E+00
  0.00000000E+00  0.00000000E+00  0.00000000E+00
  0.00000000E+00  0.00000000E+00  0.00000000E+00
  0.00000000E+00  0.00000000E+00  0.00000000E+00
