Mo Te2                                  
   1.00000000000000     
     3.4968835147149506    0.0000000655684154    0.0000002824991365
    -1.7484417099425540    3.0283899841223536    0.0000001394893740
    -0.0000000073053075   -0.0000000083828831   13.7088464595019417
  Mo              Te            
     2     4
Direct
     0.3333333253794777    0.6666666515855368    0.2499999997350670
     0.6666666446205198    0.3333333484144632    0.7500000002649330
     0.3333332941111564    0.6666666761257218    0.6174420154564229
     0.6666666758888411    0.3333333238742782    0.3825579845435699
     0.6666666539747013    0.3333333073672051    0.1174420155510246
     0.3333333160252963    0.6666666926327949    0.8825579844489826
 
  0.00000000E+00  0.00000000E+00  0.00000000E+00
  0.00000000E+00  0.00000000E+00  0.00000000E+00
  0.00000000E+00  0.00000000E+00  0.00000000E+00
  0.00000000E+00  0.00000000E+00  0.00000000E+00
  0.00000000E+00  0.00000000E+00  0.00000000E+00
  0.00000000E+00  0.00000000E+00  0.00000000E+00
