EDIFF = 1e-06
SYSTEM = bulk MoTe2
ISMEAR = 0
SIGMA = 0.05
IVDW = 11
LMAXMIX = 4
LASPH = .TRUE.
ENCUT = 350
LSORBIT = .TRUE.
ICHARG = 11
LORBIT = 11
LWAVE = .FALSE.
LCHARG = .FALSE.
NCORE = 1
KPAR = 140
