Mo Te2                                  
   1.00000000000000     
     3.5127427406663156   -0.0000387498811593    0.0000008569092014
    -1.7564049485173909    3.0421047327547530    0.0000003928012947
     0.0000021004561593    0.0000022624698427   13.9141180902571779
  Mo              Te            
     2     4
Direct
     0.3333328891114430    0.6666671296333483    0.2500000048623200	 # Mo : 	 -0.00000   0.00000  -0.00000
     0.6666670808885605    0.3333328703666483    0.7499999951376755	 # Mo : 	 -0.00000   0.00000  -0.00000
     0.3333394077163563    0.6666674600898361    0.6195339964279646	 # Te : 	  0.00000  -0.00000  -0.00000
     0.6666605622836372    0.3333325399101726    0.3804660035720376	 # Te : 	  0.00000  -0.00000  -0.00000
     0.6666681921214493    0.3333388389863979    0.1195339921160041	 # Te : 	  0.00000   0.00000  -0.00000
     0.3333317778785408    0.6666611610136013    0.8804660078840061	 # Te : 	  0.00000   0.00000  -0.00000
 
  0.00000000E+00  0.00000000E+00  0.00000000E+00
  0.00000000E+00  0.00000000E+00  0.00000000E+00
  0.00000000E+00  0.00000000E+00  0.00000000E+00
  0.00000000E+00  0.00000000E+00  0.00000000E+00
  0.00000000E+00  0.00000000E+00  0.00000000E+00
  0.00000000E+00  0.00000000E+00  0.00000000E+00

