Mo Te2                                  
   1.00000000000000     
     3.5139470405399749    0.0000000664524864    0.0000002893620293
    -1.7569734721351549    3.0431674313653252    0.0000001428780592
    -0.0000000020405273   -0.0000000023415172   13.9740397668683318
  Mo              Te            
     2     4
Direct
     0.3333333253794777    0.6666666515855368    0.2499999997350670
     0.6666666446205198    0.3333333484144632    0.7500000002649330
     0.3333332941068790    0.6666666761223112    0.6201751493365457
     0.6666666758931186    0.3333333238776888    0.3798248506634474
     0.6666666539704238    0.3333333073637945    0.1201751494311469
     0.3333333160295737    0.6666666926362055    0.8798248505688597
 
  0.00000000E+00  0.00000000E+00  0.00000000E+00
  0.00000000E+00  0.00000000E+00  0.00000000E+00
  0.00000000E+00  0.00000000E+00  0.00000000E+00
  0.00000000E+00  0.00000000E+00  0.00000000E+00
  0.00000000E+00  0.00000000E+00  0.00000000E+00
  0.00000000E+00  0.00000000E+00  0.00000000E+00
