Mo Te2                                  
   1.00000000000000     
     3.5166321160713570    0.0000000665916570    0.0000002900385122
    -1.7583160097875148    3.0454927750496155    0.0000001432120856
    -0.0000000011881129   -0.0000000013633665   13.9957005031113919
  Mo              Te            
     2     4
Direct
     0.3333333253794777    0.6666666515855368    0.2499999997350670
     0.6666666446205198    0.3333333484144632    0.7500000002649330
     0.3333332941060994    0.6666666761216877    0.6203717062986367
     0.6666666758938979    0.3333333238783123    0.3796282937013563
     0.6666666539696444    0.3333333073631710    0.1203717063932384
     0.3333333160303533    0.6666666926368290    0.8796282936067688
 
  0.00000000E+00  0.00000000E+00  0.00000000E+00
  0.00000000E+00  0.00000000E+00  0.00000000E+00
  0.00000000E+00  0.00000000E+00  0.00000000E+00
  0.00000000E+00  0.00000000E+00  0.00000000E+00
  0.00000000E+00  0.00000000E+00  0.00000000E+00
  0.00000000E+00  0.00000000E+00  0.00000000E+00
