Mo Te2                                  
   1.00000000000000     
     3.5159669431901857    0.0000000665523656    0.0000002901391163
    -1.7579834233791745    3.0449167184186789    0.0000001432617608
    -0.0000000013960931   -0.0000000016020251   14.0031364401710423
  Mo              Te            
     2     4
Direct
     0.3333333253794777    0.6666666515855368    0.2499999997350670
     0.6666666446205198    0.3333333484144632    0.7500000002649330
     0.3333332941056852    0.6666666761213591    0.6204385678786150
     0.6666666758943123    0.3333333238786409    0.3795614321213773
     0.6666666539692301    0.3333333073628424    0.1204385679732173
     0.3333333160307674    0.6666666926371576    0.8795614320267905
 
  0.00000000E+00  0.00000000E+00  0.00000000E+00
  0.00000000E+00  0.00000000E+00  0.00000000E+00
  0.00000000E+00  0.00000000E+00  0.00000000E+00
  0.00000000E+00  0.00000000E+00  0.00000000E+00
  0.00000000E+00  0.00000000E+00  0.00000000E+00
  0.00000000E+00  0.00000000E+00  0.00000000E+00
