Mo Te2                                  
   1.00000000000000     
     3.5113946952190380    0.0000000663234609    0.0000002879137713
    -1.7556972995795872    3.0409570354198290    0.0000001421629539
    -0.0000000028527633   -0.0000000032735626   13.9142764419421905
  Mo              Te            
     2     4
Direct
     0.3333333253794777    0.6666666515855368    0.2499999997350670
     0.6666666446205198    0.3333333484144632    0.7500000002649330
     0.3333332941070921    0.6666666761224747    0.6195754926857171
     0.6666666758929054    0.3333333238775253    0.3804245073142758
     0.6666666539706370    0.3333333073639579    0.1195754927803187
     0.3333333160293606    0.6666666926360421    0.8804245072196883
 
  0.00000000E+00  0.00000000E+00  0.00000000E+00
  0.00000000E+00  0.00000000E+00  0.00000000E+00
  0.00000000E+00  0.00000000E+00  0.00000000E+00
  0.00000000E+00  0.00000000E+00  0.00000000E+00
  0.00000000E+00  0.00000000E+00  0.00000000E+00
  0.00000000E+00  0.00000000E+00  0.00000000E+00
