EDIFF = 1e-06
SYSTEM = bulk MoTe2
ISMEAR = 0
SIGMA = 0.05
IVDW = 11
LMAXMIX = 4
LASPH = .TRUE.
ENCUT = 350
LSORBIT = .TRUE.
NCORE = 8
ICHARG = 11
LWAVE = .FALSE.
LCHARG = .FALSE.
LORBIT = 11
NEDOS = 10001
EMIN = 3.6790000000000003
EMAX = 13.679
ALGO = None
NELM = 1
