Mo Te2                                  
   1.00000000000000     
     3.4962462090228952    0.0000000655352891    0.0000002817324376
    -1.7481230571235069    3.0278380611880511    0.0000001391108017
    -0.0000000074815314   -0.0000000085851011   13.6738062847327964
  Mo              Te            
     2     4
Direct
     0.3333333253794777    0.6666666515855368    0.2499999997350670
     0.6666666446205198    0.3333333484144632    0.7500000002649330
     0.3333332941111863    0.6666666761257418    0.6171077411992013
     0.6666666758888111    0.3333333238742580    0.3828922588007915
     0.6666666539747312    0.3333333073672253    0.1171077412938031
     0.3333333160252663    0.6666666926327749    0.8828922587062041
 
  0.00000000E+00  0.00000000E+00  0.00000000E+00
  0.00000000E+00  0.00000000E+00  0.00000000E+00
  0.00000000E+00  0.00000000E+00  0.00000000E+00
  0.00000000E+00  0.00000000E+00  0.00000000E+00
  0.00000000E+00  0.00000000E+00  0.00000000E+00
  0.00000000E+00  0.00000000E+00  0.00000000E+00
