Mo Te2                                  
   1.00000000000000     
     3.5166920492871210    0.0000000665921195    0.0000002903625084
    -1.7583459763951570    3.0455446787371283    0.0000001433720649
    -0.0000000011815953   -0.0000000013558875   14.0112029111035845
  Mo              Te            
     2     4
Direct
     0.3333333253794777    0.6666666515855368    0.2499999997350670
     0.6666666446205198    0.3333333484144632    0.7500000002649330
     0.3333332941054030    0.6666666761211327    0.6205222505774931
     0.6666666758945943    0.3333333238788673    0.3794777494224998
     0.6666666539689481    0.3333333073626160    0.1205222506720948
     0.3333333160310497    0.6666666926373840    0.8794777493279123
 
  0.00000000E+00  0.00000000E+00  0.00000000E+00
  0.00000000E+00  0.00000000E+00  0.00000000E+00
  0.00000000E+00  0.00000000E+00  0.00000000E+00
  0.00000000E+00  0.00000000E+00  0.00000000E+00
  0.00000000E+00  0.00000000E+00  0.00000000E+00
  0.00000000E+00  0.00000000E+00  0.00000000E+00
