Mo Te2                                  
   1.00000000000000     
     3.5159052523362599    0.0000000665526021    0.0000002899092658
    -1.7579525779518395    3.0448632925722023    0.0000001431482677
    -0.0000000014262484   -0.0000000016366284   13.9923536957442955
  Mo              Te            
     2     4
Direct
     0.3333333253794777    0.6666666515855368    0.2499999997350670
     0.6666666446205198    0.3333333484144632    0.7500000002649330
     0.3333332941060974    0.6666666761216860    0.6203250488398078
     0.6666666758939002    0.3333333238783140    0.3796749511601849
     0.6666666539696422    0.3333333073631692    0.1203250489344092
     0.3333333160303553    0.6666666926368308    0.8796749510655977
 
  0.00000000E+00  0.00000000E+00  0.00000000E+00
  0.00000000E+00  0.00000000E+00  0.00000000E+00
  0.00000000E+00  0.00000000E+00  0.00000000E+00
  0.00000000E+00  0.00000000E+00  0.00000000E+00
  0.00000000E+00  0.00000000E+00  0.00000000E+00
  0.00000000E+00  0.00000000E+00  0.00000000E+00
