Mo Te2                                  
   1.00000000000000     
     3.5115103548923425    0.0000000663279627    0.0000002882469411
    -1.7557551294126528    3.0410571996371041    0.0000001423274629
    -0.0000000027887793   -0.0000000032001406   13.9297774686815927
  Mo              Te            
     2     4
Direct
     0.3333333253794777    0.6666666515855368    0.2499999997350670
     0.6666666446205198    0.3333333484144632    0.7500000002649330
     0.3333332941080727    0.6666666761232634    0.6197220083715010
     0.6666666758919249    0.3333333238767366    0.3802779916284921
     0.6666666539716175    0.3333333073647466    0.1197220084661029
     0.3333333160283800    0.6666666926352534    0.8802779915339044
 
  0.00000000E+00  0.00000000E+00  0.00000000E+00
  0.00000000E+00  0.00000000E+00  0.00000000E+00
  0.00000000E+00  0.00000000E+00  0.00000000E+00
  0.00000000E+00  0.00000000E+00  0.00000000E+00
  0.00000000E+00  0.00000000E+00  0.00000000E+00
  0.00000000E+00  0.00000000E+00  0.00000000E+00
