Mo Te2                                  
   1.00000000000000     
     3.5116850477556012    0.0000000663347803    0.0000002881594637
    -1.7558424758388447    3.0412084880975638    0.0000001422842693
    -0.0000000026878274   -0.0000000030842977   13.9247151057702006
  Mo              Te            
     2     4
Direct
     0.3333333253794777    0.6666666515855368    0.2499999997350670
     0.6666666446205198    0.3333333484144632    0.7500000002649330
     0.3333332941088942    0.6666666761239153    0.6196702428294848
     0.6666666758911036    0.3333333238760848    0.3803297571705079
     0.6666666539724387    0.3333333073653985    0.1196702429240866
     0.3333333160275585    0.6666666926346014    0.8803297570759206
 
  0.00000000E+00  0.00000000E+00  0.00000000E+00
  0.00000000E+00  0.00000000E+00  0.00000000E+00
  0.00000000E+00  0.00000000E+00  0.00000000E+00
  0.00000000E+00  0.00000000E+00  0.00000000E+00
  0.00000000E+00  0.00000000E+00  0.00000000E+00
  0.00000000E+00  0.00000000E+00  0.00000000E+00
