Mo Te2                                  
   1.00000000000000     
     3.5135519702236153    0.0000000664313776    0.0000002889316228
    -1.7567759369941973    3.0428252904255024    0.0000001426655377
    -0.0000000021645604   -0.0000000024838458   13.9547693281699559
  Mo              Te            
     2     4
Direct
     0.3333333253794777    0.6666666515855368    0.2499999997350670
     0.6666666446205198    0.3333333484144632    0.7500000002649330
     0.3333332941068796    0.6666666761223096    0.6200056211579975
     0.6666666758931179    0.3333333238776905    0.3799943788419949
     0.6666666539704245    0.3333333073637927    0.1200056212525995
     0.3333333160295731    0.6666666926362071    0.8799943787474079
 
  0.00000000E+00  0.00000000E+00  0.00000000E+00
  0.00000000E+00  0.00000000E+00  0.00000000E+00
  0.00000000E+00  0.00000000E+00  0.00000000E+00
  0.00000000E+00  0.00000000E+00  0.00000000E+00
  0.00000000E+00  0.00000000E+00  0.00000000E+00
  0.00000000E+00  0.00000000E+00  0.00000000E+00
