Mo Te2                                  
   1.00000000000000     
     3.4956702143980287    0.0000000655044615    0.0000002817966081
    -1.7478350598362280    3.0273392351964836    0.0000001391424871
    -0.0000000076661250   -0.0000000087969233   13.6792151382607337
  Mo              Te            
     2     4
Direct
     0.3333333253794777    0.6666666515855368    0.2499999997350670
     0.6666666446205198    0.3333333484144632    0.7500000002649330
     0.3333332941110742    0.6666666761256528    0.6171650816245707
     0.6666666758889233    0.3333333238743474    0.3828349183754219
     0.6666666539746191    0.3333333073671359    0.1171650817191725
     0.3333333160253785    0.6666666926328639    0.8828349182808347
 
  0.00000000E+00  0.00000000E+00  0.00000000E+00
  0.00000000E+00  0.00000000E+00  0.00000000E+00
  0.00000000E+00  0.00000000E+00  0.00000000E+00
  0.00000000E+00  0.00000000E+00  0.00000000E+00
  0.00000000E+00  0.00000000E+00  0.00000000E+00
  0.00000000E+00  0.00000000E+00  0.00000000E+00
