EDIFF = 1e-06
SYSTEM = bulk MoTe2
ISMEAR = 0
SIGMA = 0.05
IVDW = 11
LMAXMIX = 4
LASPH = .TRUE.
ENCUT = 350
LSORBIT = .TRUE.
NCORE = 3
ICHARG = 11
LORBIT = 11
NEDOS = 10001
EMIN = 3.6790000000000003
EMAX = 13.679
KPAR = 49
LWAVE = .FALSE.
LCHARG = .FALSE.
